17	4
23	35	22	24	
0	0	0	0	0	3	2	3	4	
10	2	9	0	0	3	10	15	17	
1	0	0	8	6	3	6	7	17	
8	6	7	4	6	3	5	9	12	
7	0	9	2	10	3	16	17	17	
250	0	2	6	0	3	8	14	17	
100	0	5	7	1	3	11	17	17	
50	3	6	0	0	3	10	15	16	
225	4	10	0	1	3	10	17	17	
225	10	0	2	1	3	17	17	17	
25	5	6	8	10	3	12	14	15	
100	6	5	0	0	3	13	17	17	
8	3	9	5	1	1	16	
7	7	0	0	8	2	17	17	
1	9	5	1	0	2	17	17	
2	0	0	9	0	2	17	17	
0	0	0	0	0	0	
